c Circuit constraints for aerospace component
c Variables 1-15 represent signals and control lines
c Complex interdependencies for critical systems
p cnf 15 42
1 2 3 0
-1 -2 0
-1 -3 0
-2 -3 0
4 5 0
-4 6 0
-5 7 0
1 -4 0
2 -5 0
3 6 7 0
-6 -7 8 0
8 9 10 0
-8 -9 0
-8 -10 0
6 7 -11 0
6 7 -12 0
11 12 -6 0
11 12 -7 0
-9 -10 13 0
13 14 15 0
-13 -14 0
-13 -15 0
-14 -15 0
1 2 -8 0
3 4 -9 0
5 -10 0
11 -1 0
12 -2 0
13 -3 0
14 -4 0
15 -5 0
-11 -12 -13 0
6 -14 0
7 -15 0
8 11 0
9 12 0
10 13 0
1 11 15 0
2 12 14 0
3 13 0
4 14 0
5 15 0